\ENCODING=ISO-8859-1
\Problem name: ilog.cplex

Maximize
 obj: 0.05 x1 - 0.05 x2 + 0.15 x3 - 0.15 x4 + 0.4 x5 - 0.4 x6 + 0.1 x7 - 0.1 x8
      + 0.3 x9 - 0.3 x10
Subject To
 c1: - x1 + x2  = 19.2694553333333
 c2: - x3 + x4  = 69.5485878205128
 c3: - x5 + x6  = 106.481481481481
 c4: - x7 + x8  = -61.1111111111111
 c5: - x9 + x10  = 0
End
